p cnf 10 50
-10 5 -4 0
-3 -1 6 0
-5 -2 -10 0
-8 -10 -2 0
-5 -9 1 0
9 5 -8 0
4 -1 -10 0
-1 5 -3 0
-10 5 1 0
-7 -10 -3 0
-2 6 8 0
5 4 6 0
10 1 -9 0
10 -3 -2 0
-5 -6 3 0
5 -10 -6 0
-5 2 -3 0
7 9 -4 0
-2 6 -9 0
10 5 -3 0
6 9 5 0
5 6 -4 0
4 -2 8 0
4 2 -7 0
4 -5 9 0
-8 -9 -5 0
-9 7 -2 0
-9 -7 -2 0
-4 5 10 0
-3 5 -2 0
-5 -4 7 0
6 10 3 0
3 8 -9 0
1 8 -9 0
-5 8 9 0
-7 2 8 0
10 4 -5 0
5 7 2 0
1 3 4 0
-8 -1 -9 0
4 -2 8 0
-7 -1 -4 0
-2 -4 7 0
5 -8 1 0
-3 10 -2 0
4 -9 3 0
5 -10 -7 0
-4 8 -1 0
-1 2 -5 0
5 3 -9 0